21, 1035
891, 4295
1168, 2048
1558, 1433
2463, 1164
876, 2430
2213, 4666
1337, 2379
938, 2685
2006, 4207
559, 1616
2078, 2699
1513, 2107
2442, 1094
713, 4120
1215, 1828
874, 3042
2433, 2772
1881, 2132
996, 1994
1740, 2995
2109, 1927